3,1,7,1,16,2,15,2,19,2,18,2,15,4,11,1,10,4,6,3,1,4,17,4,2,4,11,3,16,5,12,3,12,4,14,4,7,5,8,5;5,1,14,2,18,1,20,2,9,2,1,2,17,2,6,2,13,1,8,3,5,4,2,3,15,5,19,4,7,3,7,4,11,4,3,5,4,5;14,1,1,1,2,1,2,2,4,1,10,2,5,3,20,3,1,3,18,4,19,3,4,3,13,3,9,3,8,4,9,4,6,4,11,5,6,5;16,1,10,1,3,2,6,1,15,3,4,2,18,3,3,3,7,2,11,2,13,2,17,3,16,4,12,2,20,5,13,5,4,4,12,5,14,5,9,5,19,5;12,1,15,1,19,1,9,1,20,1,5,2,17,1,8,1,16,3,10,3,8,2,20,4,10,5,3,4,18,5,13,4,5,5,14,3,1,5,2,5,17,5;
